data;
param n:=100;
param w:=1 -425 2 -271 3 -164 4 273 5 121 6 -415 7 -265 8 -259 9 270 10 302 11 332 12 426 13 75 14 -477 15 -258 16 351 17 -20 18 480 19 -460 20 -211 21 -62 22 -290 23 492 24 212 25 -386 26 -378 27 -169 28 55 29 -21 30 -119 31 455 32 -252 33 52 34 -274 35 -217 36 241 37 124 38 236 39 468 40 -431 41 -74 42 -267 43 484 44 167 45 78 46 -63 47 -113 48 -320 49 488 50 -65 51 83 52 71 53 -242 54 -174 55 263 56 132 57 -13 58 -94 59 -40 60 -483 61 171 62 89 63 -311 64 213 65 -169 66 207 67 175 68 -425 69 -145 70 224 71 -505 72 -191 73 -207 74 431 75 -450 76 -271 77 364 78 173 79 352 80 289 81 45 82 -190 83 304 84 -14 85 144 86 434 87 -151 88 386 89 196 90 -425 91 334 92 151 93 188 94 -155 95 -280 96 36 97 153 98 57 99 163 100 -349;
